c clasp version 2.1.1
c Reading from pb_300_06.cnf
c Solving...
s UNKNOWN

c TIME LIMIT    : 1
c Models        : 0+    
c Time          : 100000.295s (Solving: 99999.50s 1st Model: 0.00s Unsat: 0.00s)
c CPU Time      : 99839.240s
c Choices       : 164074531
c Conflicts     : 115050604
c Restarts      : 32     (Average: 3595331.38 Last: 110448431)

c Variables     : 393066 (Eliminated:    8 Frozen:    0)
c Constraints   : 423427 (Binary: 58.5% Ternary: 39.8% Other:  1.7%)
c Lemmas        : 115050604 (Binary:  0.0% Ternary:  0.0% Other:100.0%)
c   Conflict    : 115050604 (Average Length: 645.6) 
c   Loop        : 0      (Average Length: 0.0) 
c   Other       : 0      (Average Length: 0.0)
c   Deleted     : 114956416
